NAME : tsp_136_sol.txt
COMMENT : OR-Tools Guided Local Search
TYPE : TOUR
DIMENSION : 50
COST : 5689
STATUS : ROUTING_SUCCESS
GAP : 0.00% (Reference Solution)
TOUR_SECTION
1
4
48
15
39
49
31
46
29
25
40
44
13
50
23
34
24
14
9
7
26
5
17
19
18
32
37
42
35
41
8
30
10
43
36
20
22
12
21
2
16
3
45
28
33
6
27
11
38
47
-1
